p td 22 45
4 3
5 3
6 1
7 6
7 4
8 3
8 6
9 7
9 4
9 6
11 3
12 5
12 11
12 2
13 10
14 12
14 1
14 11
14 5
15 13
15 12
15 14
15 9
15 3
16 12
17 7
18 15
18 5
18 7
19 18
19 14
19 11
20 1
20 7
20 12
20 17
20 4
21 16
21 3
21 15
21 11
22 14
22 18
22 13
22 19
